nohup: ignoring input
miplib2017_binary-small
symmetric
./result/miplib2017/miplib2017_purebinary_solved.txt
original problem has 2183 variables (2183 bin, 0 int, 0 impl, 0 cont) and 5587 constraints
graph20-20-1rand


miplib2017_binary-34
Number of variables 2183
Number of binary variables 2183
* Model status: sollimit
* Solving time: 0.11251599999999999
* number of sol :  1
* Model status: nodelimit
* Solving time: 24.742577
* number of sol :  3
wrote problem to file /home/liudefen/projects/ML4LocalBranch_extend/data/generated_instances/miplib2017_binary/-small/transformedmodel/miplib2017_binary-34_transformed.mps
original problem has 2183 variables (2146 bin, 37 int, 0 impl, 0 cont) and 5180 constraints
-7.0
-7.0
original problem has 16263 variables (16263 bin, 0 int, 0 impl, 0 cont) and 55107 constraints
graph20-80-1rand


miplib2017_binary-35
Number of variables 16263
Number of binary variables 16263
* Model status: sollimit
* Solving time: 3.172437
* number of sol :  1
